ilp_joint_2/output/reproduction_ilp.lp
Maximize
  0.00190590901352505 Z_121_1_0 + 0.00238752172216061 Z_121_1_1
   + 0.4009834506935178 Z_121_1_2 + 0.00319411837359177 Z_121_1_3
   + 0.0274284106550896 Z_121_2_0 + 0.0206176482625154 Z_121_2_1
   + 0.00624849585629572 Z_121_2_2 + 0.2837256980969218 Z_121_2_3
   + 0.00191088521351412 Z_74_1_0 + 0.00240304460921315 Z_74_1_1
   + 0.3638415945191481 Z_74_1_2 + 0.0052009388311571 Z_74_1_3 + [
   1.478260869565217 Z_121_1_0 * Z_74_1_0
   + 1.478260869565217 Z_121_1_1 * Z_74_1_1
   + 1.478260869565217 Z_121_1_2 * Z_74_1_2
   + 1.478260869565217 Z_121_1_3 * Z_74_1_3 ] / 2 
Subject To
 constraint1_1211: Z_121_1_0 + Z_121_1_1 + Z_121_1_2 + Z_121_1_3 <= 1
 constraint1_1212: Z_121_2_0 + Z_121_2_1 + Z_121_2_2 + Z_121_2_3 <= 1
 constraint1_741: Z_74_1_0 + Z_74_1_1 + Z_74_1_2 + Z_74_1_3 <= 1
 constraint2_1210: Z_121_1_0 + Z_121_2_0 <= 1
 constraint2_1211: Z_121_1_1 + Z_121_2_1 <= 1
 constraint2_1212: Z_121_1_2 + Z_121_2_2 <= 1
 constraint2_1213: Z_121_1_3 + Z_121_2_3 <= 1
 constraint2_740: Z_74_1_0 <= 1
 constraint2_741: Z_74_1_1 <= 1
 constraint2_742: Z_74_1_2 <= 1
 constraint2_743: Z_74_1_3 <= 1
Bounds
Binaries
 Z_121_1_0 Z_121_1_1 Z_121_1_2 Z_121_1_3 Z_121_2_0 Z_121_2_1 Z_121_2_2
 Z_121_2_3 Z_74_1_0 Z_74_1_1 Z_74_1_2 Z_74_1_3
End
