ilp_joint_2/output/reproduction_ilp.sol
# Solution for model reproduction_srl_ilp
# Objective value = 1.7876811780921964e+00
Z_121_1_0 0
Z_121_1_1 0
Z_121_1_2 1
Z_121_1_3 0
Z_121_2_0 0
Z_121_2_1 0
Z_121_2_2 0
Z_121_2_3 1
Z_74_1_0 0
Z_74_1_1 0
Z_74_1_2 1
Z_74_1_3 0
